\ENCODING=ISO-8859-1
\Problem name: ilog.cplex

Maximize
 obj: 895 x(0)#0 + 794 x(1)#1 + 758 x(2)#2 + 938 x(3)#3 + 555 x(4)#4
      + 870 x(5)#5 + 310 x(6)#6 + 574 x(7)#7 + 636 x(8)#8 + 975 x(9)#9
      + 591 x(10)#10 + 808 x(11)#11 + 654 x(12)#12 + 1049 x(13)#13
      + 972 x(14)#14 + 1041 x(15)#15 + 885 x(16)#16 + 1031 x(17)#17
      + 992 x(18)#18 + 664 x(19)#19 + 586 x(20)#20 + 631 x(21)#21
      + 889 x(22)#22 + 412 x(23)#23 + 804 x(24)#24 + 880 x(25)#25
      + 681 x(26)#26 + 738 x(27)#27 + 991 x(28)#28 + 915 x(29)#29
      + 356 x(30)#30 + 958 x(31)#31 + 1131 x(32)#32 + 615 x(33)#33
      + 331 x(34)#34 + 789 x(35)#35 + 365 x(36)#36 + 627 x(37)#37
      + 939 x(38)#38 + 571 x(39)#39 + 871 x(40)#40 + 520 x(41)#41
      + 696 x(42)#42 + 642 x(43)#43 + 776 x(44)#44 + 947 x(45)#45
      + 803 x(46)#46 + 535 x(47)#47 + 832 x(48)#48 + 748 x(49)#49
      + 888 x(50)#50 + 909 x(51)#51 + 924 x(52)#52 + 846 x(53)#53
      + 825 x(54)#54 + 1224 x(55)#55 + 577 x(56)#56 + 924 x(57)#57
      + 837 x(58)#58 + 644 x(59)#59 + 887 x(60)#60 + 830 x(61)#61
      + 1123 x(62)#62 + 639 x(63)#63 + 812 x(64)#64 + 680 x(65)#65
      + 997 x(66)#66 + 994 x(67)#67 + 844 x(68)#68 + 861 x(69)#69
      + 450 x(70)#70 + 1022 x(71)#71 + 558 x(72)#72 + 743 x(73)#73
      + 285 x(74)#74 + 795 x(75)#75 + 1005 x(76)#76 + 772 x(77)#77
      + 820 x(78)#78 + 588 x(79)#79 + 850 x(80)#80 + 960 x(81)#81
      + 762 x(82)#82 + 719 x(83)#83 + 969 x(84)#84 + 711 x(85)#85
      + 504 x(86)#86 + 587 x(87)#87 + 489 x(88)#88 + 1049 x(89)#89
      + 496 x(90)#90 + 799 x(91)#91 + 580 x(92)#92 + 397 x(93)#93
      + 539 x(94)#94 + 844 x(95)#95 + 496 x(96)#96 + 697 x(97)#97
      + 741 x(98)#98 + 1141 x(99)#99 + 863 x(100)#100 + 684 x(101)#101
      + 507 x(102)#102 + 559 x(103)#103 + 718 x(104)#104 + 1072 x(105)#105
      + 634 x(106)#106 + 988 x(107)#107 + 838 x(108)#108 + 653 x(109)#109
      + 668 x(110)#110 + 619 x(111)#111 + 920 x(112)#112 + 620 x(113)#113
      + 1111 x(114)#114 + 722 x(115)#115 + 576 x(116)#116 + 906 x(117)#117
      + 693 x(118)#118 + 806 x(119)#119 + 549 x(120)#120 + 507 x(121)#121
      + 775 x(122)#122 + 738 x(123)#123 + 987 x(124)#124 + 854 x(125)#125
      + 950 x(126)#126 + 458 x(127)#127 + 494 x(128)#128 + 952 x(129)#129
      + 653 x(130)#130 + 402 x(131)#131 + 876 x(132)#132 + 1051 x(133)#133
      + 661 x(134)#134 + 1094 x(135)#135 + 748 x(136)#136 + 1161 x(137)#137
      + 572 x(138)#138 + 352 x(139)#139 + 648 x(140)#140 + 590 x(141)#141
      + 417 x(142)#142 + 780 x(143)#143 + 541 x(144)#144 + 777 x(145)#145
      + 852 x(146)#146 + 414 x(147)#147 + 841 x(148)#148 + 924 x(149)#149
      + 437 x(150)#150 + 979 x(151)#151 + 720 x(152)#152 + 764 x(153)#153
      + 754 x(154)#154 + 829 x(155)#155 + 917 x(156)#156 + 463 x(157)#157
      + 716 x(158)#158 + 854 x(159)#159 + 712 x(160)#160 + 477 x(161)#161
      + 415 x(162)#162 + 869 x(163)#163 + 581 x(164)#164 + 694 x(165)#165
      + 581 x(166)#166 + 807 x(167)#167 + 596 x(168)#168 + 783 x(169)#169
      + 864 x(170)#170 + 533 x(171)#171 + 352 x(172)#172 + 967 x(173)#173
      + 646 x(174)#174 + 589 x(175)#175 + 898 x(176)#176 + 695 x(177)#177
      + 611 x(178)#178 + 1195 x(179)#179 + 558 x(180)#180 + 738 x(181)#181
      + 784 x(182)#182 + 598 x(183)#183 + 684 x(184)#184 + 733 x(185)#185
      + 632 x(186)#186 + 697 x(187)#187 + 756 x(188)#188 + 848 x(189)#189
      + 331 x(190)#190 + 883 x(191)#191 + 850 x(192)#192 + 556 x(193)#193
      + 748 x(194)#194 + 616 x(195)#195 + 579 x(196)#196 + 1062 x(197)#197
      + 1004 x(198)#198 + 669 x(199)#199 + 804 x(200)#200 + 973 x(201)#201
      + 545 x(202)#202 + 570 x(203)#203 + 619 x(204)#204 + 681 x(205)#205
      + 790 x(206)#206 + 928 x(207)#207 + 994 x(208)#208 + 791 x(209)#209
      + 676 x(210)#210 + 768 x(211)#211 + 800 x(212)#212 + 726 x(213)#213
      + 701 x(214)#214 + 890 x(215)#215 + 940 x(216)#216 + 1088 x(217)#217
      + 915 x(218)#218 + 816 x(219)#219 + 486 x(220)#220 + 735 x(221)#221
      + 720 x(222)#222 + 563 x(223)#223 + 641 x(224)#224 + 828 x(225)#225
      + 604 x(226)#226 + 770 x(227)#227 + 877 x(228)#228 + 868 x(229)#229
      + 467 x(230)#230 + 786 x(231)#231 + 548 x(232)#232 + 467 x(233)#233
      + 215 x(234)#234 + 695 x(235)#235 + 843 x(236)#236 + 526 x(237)#237
      + 778 x(238)#238 + 783 x(239)#239 + 1025 x(240)#240 + 646 x(241)#241
      + 544 x(242)#242 + 843 x(243)#243 + 982 x(244)#244 + 693 x(245)#245
      + 468 x(246)#246 + 731 x(247)#247 + 610 x(248)#248 + 813 x(249)#249
Subject To
 c1: 764 x(0)#0 + 736 x(1)#1 + 44 x(2)#2 + 826 x(3)#3 + 208 x(4)#4 + 711 x(5)#5
     + 406 x(6)#6 + 228 x(7)#7 + 494 x(8)#8 + 739 x(9)#9 + 323 x(10)#10
     + 612 x(11)#11 + 853 x(12)#12 + 721 x(13)#13 + 634 x(14)#14 + 191 x(15)#15
     + 211 x(16)#16 + 659 x(17)#17 + 397 x(18)#18 + 241 x(19)#19 + 941 x(20)#20
     + 237 x(21)#21 + 564 x(22)#22 + 391 x(23)#23 + 615 x(24)#24 + 176 x(25)#25
     + 811 x(26)#26 + 577 x(27)#27 + 899 x(28)#28 + 617 x(29)#29 + 260 x(30)#30
     + 731 x(31)#31 + 994 x(32)#32 + 223 x(33)#33 + 109 x(34)#34 + 13 x(35)#35
     + 35 x(36)#36 + 254 x(37)#37 + 848 x(38)#38 + 48 x(39)#39 + 886 x(40)#40
     + 254 x(41)#41 + 68 x(42)#42 + 647 x(43)#43 + 112 x(44)#44 + 874 x(45)#45
     + 446 x(46)#46 + 255 x(47)#47 + 716 x(48)#48 + 498 x(49)#49 + 711 x(50)#50
     + 607 x(51)#51 + 822 x(52)#52 + 40 x(53)#53 + 772 x(54)#54 + 605 x(55)#55
     + 30 x(56)#56 + 946 x(57)#57 + 281 x(58)#58 + 734 x(59)#59 + 398 x(60)#60
     + 716 x(61)#61 + 883 x(62)#62 + 875 x(63)#63 + 405 x(64)#64 + 875 x(65)#65
     + 663 x(66)#66 + 628 x(67)#67 + 743 x(68)#68 + 354 x(69)#69 + 277 x(70)#70
     + 741 x(71)#71 + 26 x(72)#72 + 108 x(73)#73 + 100 x(74)#74 + 764 x(75)#75
     + 537 x(76)#76 + 30 x(77)#77 + 61 x(78)#78 + 78 x(79)#79 + 335 x(80)#80
     + 114 x(81)#81 + 799 x(82)#82 + 108 x(83)#83 + 946 x(84)#84 + 571 x(85)#85
     + 477 x(86)#86 + 457 x(87)#87 + 789 x(88)#88 + 611 x(89)#89 + 305 x(90)#90
     + 655 x(91)#91 + 772 x(92)#92 + 38 x(93)#93 + 23 x(94)#94 + 167 x(95)#95
     + 245 x(96)#96 + 709 x(97)#97 + 226 x(98)#98 + 405 x(99)#99
     + 499 x(100)#100 + 586 x(101)#101 + 719 x(102)#102 + 293 x(103)#103
     + 297 x(104)#104 + 550 x(105)#105 + 483 x(106)#106 + 921 x(107)#107
     + 25 x(108)#108 + 132 x(109)#109 + 725 x(110)#110 + 701 x(111)#111
     + 698 x(112)#112 + 795 x(113)#113 + 771 x(114)#114 + 272 x(115)#115
     + 211 x(116)#116 + 950 x(117)#117 + 565 x(118)#118 + 459 x(119)#119
     + 810 x(120)#120 + 308 x(121)#121 + 388 x(122)#122 + 638 x(123)#123
     + 491 x(124)#124 + 614 x(125)#125 + 713 x(126)#126 + 863 x(127)#127
     + 66 x(128)#128 + 748 x(129)#129 + 37 x(130)#130 + 362 x(131)#131
     + 927 x(132)#132 + 542 x(133)#133 + 156 x(134)#134 + 511 x(135)#135
     + 923 x(136)#136 + 764 x(137)#137 + 928 x(138)#138 + 823 x(139)#139
     + 158 x(140)#140 + 836 x(141)#141 + 486 x(142)#142 + 596 x(143)#143
     + 279 x(144)#144 + 694 x(145)#145 + 155 x(146)#146 + 835 x(147)#147
     + 504 x(148)#148 + 241 x(149)#149 + 653 x(150)#150 + 714 x(151)#151
     + 855 x(152)#152 + 500 x(153)#153 + 681 x(154)#154 + 793 x(155)#155
     + 21 x(156)#156 + 564 x(157)#157 + 248 x(158)#158 + 811 x(159)#159
     + 724 x(160)#160 + 345 x(161)#161 + 145 x(162)#162 + 489 x(163)#163
     + 643 x(164)#164 + 831 x(165)#165 + 604 x(166)#166 + 795 x(167)#167
     + 969 x(168)#168 + 101 x(169)#169 + 492 x(170)#170 + 918 x(171)#171
     + 210 x(172)#172 + 655 x(173)#173 + 426 x(174)#174 + 523 x(175)#175
     + 853 x(176)#176 + 667 x(177)#177 + 360 x(178)#178 + 973 x(179)#179
     + 865 x(180)#180 + 133 x(181)#181 + 389 x(182)#182 + 456 x(183)#183
     + 291 x(184)#184 + 124 x(185)#185 + 450 x(186)#186 + 906 x(187)#187
     + 977 x(188)#188 + 257 x(189)#189 + 190 x(190)#190 + 987 x(191)#191
     + 916 x(192)#192 + 555 x(193)#193 + 549 x(194)#194 + 684 x(195)#195
     + 879 x(196)#196 + 916 x(197)#197 + 577 x(198)#198 + 673 x(199)#199
     + 33 x(200)#200 + 777 x(201)#201 + 414 x(202)#202 + 93 x(203)#203
     + 677 x(204)#204 + 884 x(205)#205 + 47 x(206)#206 + 370 x(207)#207
     + 36 x(208)#208 + 969 x(209)#209 + 906 x(210)#210 + 142 x(211)#211
     + 23 x(212)#212 + 562 x(213)#213 + 684 x(214)#214 + 972 x(215)#215
     + 718 x(216)#216 + 515 x(217)#217 + 604 x(218)#218 + 735 x(219)#219
     + 663 x(220)#220 + 613 x(221)#221 + 824 x(222)#222 + 423 x(223)#223
     + 408 x(224)#224 + 371 x(225)#225 + 827 x(226)#226 + 657 x(227)#227
     + 860 x(228)#228 + 742 x(229)#229 + 385 x(230)#230 + 496 x(231)#231
     + 325 x(232)#232 + 481 x(233)#233 + 47 x(234)#234 + 750 x(235)#235
     + 973 x(236)#236 + 299 x(237)#237 + 958 x(238)#238 + 617 x(239)#239
     + 980 x(240)#240 + 792 x(241)#241 + 193 x(242)#242 + 5 x(243)#243
     + 929 x(244)#244 + 15 x(245)#245 + 411 x(246)#246 + 445 x(247)#247
     + 649 x(248)#248 + 409 x(249)#249 <= 98064
 c2: 938 x(0)#0 + 553 x(1)#1 + 144 x(2)#2 + 103 x(3)#3 + 241 x(4)#4 + 47 x(5)#5
     + 274 x(6)#6 + 880 x(7)#7 + 201 x(8)#8 + 793 x(9)#9 + 264 x(10)#10
     + 804 x(11)#11 + 533 x(12)#12 + 746 x(13)#13 + 588 x(14)#14 + 764 x(15)#15
     + 623 x(16)#16 + 496 x(17)#17 + 971 x(18)#18 + 533 x(19)#19 + 190 x(20)#20
     + 104 x(21)#21 + 446 x(22)#22 + 193 x(23)#23 + 804 x(24)#24 + 436 x(25)#25
     + 454 x(26)#26 + 996 x(27)#27 + 777 x(28)#28 + 653 x(29)#29 + 362 x(30)#30
     + 711 x(31)#31 + 122 x(32)#32 + 305 x(33)#33 + 99 x(34)#34 + 983 x(35)#35
     + 487 x(36)#36 + 610 x(37)#37 + 193 x(38)#38 + 410 x(39)#39 + 311 x(40)#40
     + 989 x(41)#41 + 693 x(42)#42 + 151 x(43)#43 + 324 x(44)#44 + 725 x(45)#45
     + 638 x(46)#46 + 650 x(47)#47 + 486 x(48)#48 + 683 x(49)#49 + 232 x(50)#50
     + 466 x(51)#51 + 344 x(52)#52 + 262 x(53)#53 + 728 x(54)#54 + 699 x(55)#55
     + 132 x(56)#56 + 818 x(57)#57 + 464 x(58)#58 + 98 x(59)#59 + 184 x(60)#60
     + 194 x(61)#61 + 979 x(62)#62 + 492 x(63)#63 + 477 x(64)#64 + 981 x(65)#65
     + 199 x(66)#66 + 526 x(67)#67 + 411 x(68)#68 + 994 x(69)#69 + 382 x(70)#70
     + 154 x(71)#71 + 375 x(72)#72 + 811 x(73)#73 + 202 x(74)#74 + 614 x(75)#75
     + 559 x(76)#76 + 867 x(77)#77 + 899 x(78)#78 + 260 x(79)#79 + 395 x(80)#80
     + 870 x(81)#81 + 3 x(82)#82 + 297 x(83)#83 + 980 x(84)#84 + 653 x(85)#85
     + 732 x(86)#86 + 703 x(87)#87 + 521 x(88)#88 + 974 x(89)#89 + 207 x(90)#90
     + 624 x(91)#91 + 62 x(92)#92 + 798 x(93)#93 + 155 x(94)#94 + 993 x(95)#95
     + 667 x(96)#96 + 478 x(97)#97 + 806 x(98)#98 + 555 x(99)#99
     + 357 x(100)#100 + 902 x(101)#101 + 127 x(102)#102 + 240 x(103)#103
     + 791 x(104)#104 + 876 x(105)#105 + 536 x(106)#106 + 809 x(107)#107
     + 302 x(108)#108 + 194 x(109)#109 + 564 x(110)#110 + 186 x(111)#111
     + 759 x(112)#112 + 827 x(113)#113 + 756 x(114)#114 + 242 x(115)#115
     + 225 x(116)#116 + 892 x(117)#117 + 665 x(118)#118 + 300 x(119)#119
     + 659 x(120)#120 + 242 x(121)#121 + 921 x(122)#122 + 503 x(123)#123
     + 875 x(124)#124 + 551 x(125)#125 + 690 x(126)#126 + 389 x(127)#127
     + 539 x(128)#128 + 972 x(129)#129 + 735 x(130)#130 + 446 x(131)#131
     + 164 x(132)#132 + 397 x(133)#133 + 790 x(134)#134 + 194 x(135)#135
     + 72 x(136)#136 + 704 x(137)#137 + 125 x(138)#138 + 137 x(139)#139
     + 881 x(140)#140 + 323 x(141)#141 + 200 x(142)#142 + 651 x(143)#143
     + 794 x(144)#144 + 600 x(145)#145 + 883 x(146)#146 + 302 x(147)#147
     + 169 x(148)#148 + 722 x(149)#149 + 39 x(150)#150 + 218 x(151)#151
     + 113 x(152)#152 + 396 x(153)#153 + 999 x(154)#154 + 142 x(155)#155
     + 281 x(156)#156 + 598 x(157)#157 + 616 x(158)#158 + 953 x(159)#159
     + 286 x(160)#160 + 79 x(161)#161 + 187 x(162)#162 + 360 x(163)#163
     + 937 x(164)#164 + 905 x(165)#165 + 569 x(166)#166 + 483 x(167)#167
     + 609 x(168)#168 + 863 x(169)#169 + 395 x(170)#170 + 318 x(171)#171
     + 351 x(172)#172 + 231 x(173)#173 + 143 x(174)#174 + 815 x(175)#175
     + 435 x(176)#176 + 679 x(177)#177 + 233 x(178)#178 + 28 x(179)#179
     + 162 x(180)#180 + 17 x(181)#181 + 207 x(182)#182 + 122 x(183)#183
     + 100 x(184)#184 + 726 x(185)#185 + 826 x(186)#186 + 502 x(187)#187
     + 502 x(188)#188 + 980 x(189)#189 + 110 x(190)#190 + 196 x(191)#191
     + 748 x(192)#192 + 159 x(193)#193 + 656 x(194)#194 + 241 x(195)#195
     + 44 x(196)#196 + 440 x(197)#197 + 970 x(198)#198 + 200 x(199)#199
     + 675 x(200)#200 + 593 x(201)#201 + 153 x(202)#202 + 550 x(203)#203
     + 569 x(204)#204 + 484 x(205)#205 + 337 x(206)#206 + 471 x(207)#207
     + 963 x(208)#208 + 294 x(209)#209 + 572 x(210)#210 + 293 x(211)#211
     + 588 x(212)#212 + 935 x(213)#213 + 591 x(214)#214 + 844 x(215)#215
     + 947 x(216)#216 + 958 x(217)#217 + 705 x(218)#218 + 862 x(219)#219
     + 27 x(220)#220 + 327 x(221)#221 + 114 x(222)#222 + 495 x(223)#223
     + 644 x(224)#224 + 316 x(225)#225 + 256 x(226)#226 + 816 x(227)#227
     + 349 x(228)#228 + 612 x(229)#229 + 801 x(230)#230 + 148 x(231)#231
     + 190 x(232)#232 + 877 x(233)#233 + 199 x(234)#234 + 892 x(235)#235
     + 350 x(236)#236 + 779 x(237)#237 + 30 x(238)#238 + 346 x(239)#239
     + 2 x(240)#240 + 118 x(241)#241 + 430 x(242)#242 + 680 x(243)#243
     + 792 x(244)#244 + 301 x(245)#245 + 153 x(246)#246 + 847 x(247)#247
     + 167 x(248)#248 + 333 x(249)#249 <= 92911
 c3: 628 x(0)#0 + 750 x(1)#1 + 767 x(2)#2 + 864 x(3)#3 + 182 x(4)#4
     + 929 x(5)#5 + 344 x(6)#6 + 93 x(7)#7 + 322 x(8)#8 + 365 x(9)#9
     + 979 x(10)#10 + 923 x(11)#11 + 476 x(12)#12 + 988 x(13)#13 + 954 x(14)#14
     + 677 x(15)#15 + 485 x(16)#16 + 645 x(17)#17 + 312 x(18)#18 + 636 x(19)#19
     + 774 x(20)#20 + 105 x(21)#21 + 896 x(22)#22 + 336 x(23)#23 + 950 x(24)#24
     + 629 x(25)#25 + 686 x(26)#26 + 996 x(27)#27 + 228 x(28)#28 + 299 x(29)#29
     + 616 x(30)#30 + 532 x(31)#31 + 812 x(32)#32 + 15 x(33)#33 + 507 x(34)#34
     + 175 x(35)#35 + 401 x(36)#36 + 442 x(37)#37 + 325 x(38)#38 + 780 x(39)#39
     + 878 x(40)#40 + 185 x(41)#41 + 94 x(42)#42 + 934 x(43)#43 + 717 x(44)#44
     + 858 x(45)#45 + 110 x(46)#46 + 696 x(47)#47 + 955 x(48)#48 + 667 x(49)#49
     + 797 x(50)#50 + 935 x(51)#51 + 498 x(52)#52 + 275 x(53)#53 + 28 x(54)#54
     + 874 x(55)#55 + 269 x(56)#56 + 597 x(57)#57 + 142 x(58)#58 + 26 x(59)#59
     + 688 x(60)#60 + 769 x(61)#61 + 262 x(62)#62 + 513 x(63)#63 + 623 x(64)#64
     + 753 x(65)#65 + 455 x(66)#66 + 204 x(67)#67 + 699 x(68)#68 + 683 x(69)#69
     + 950 x(70)#70 + 408 x(71)#71 + 404 x(72)#72 + 659 x(73)#73 + 48 x(74)#74
     + 566 x(75)#75 + 546 x(76)#76 + 758 x(77)#77 + 755 x(78)#78 + 78 x(79)#79
     + 706 x(80)#80 + 598 x(81)#81 + 181 x(82)#82 + 148 x(83)#83 + 129 x(84)#84
     + 89 x(85)#85 + 502 x(86)#86 + 565 x(87)#87 + 209 x(88)#88 + 824 x(89)#89
     + 63 x(90)#90 + 760 x(91)#91 + 710 x(92)#92 + 456 x(93)#93 + 488 x(94)#94
     + 909 x(95)#95 + 191 x(96)#96 + 146 x(97)#97 + 619 x(98)#98 + 951 x(99)#99
     + 845 x(100)#100 + 699 x(101)#101 + 225 x(102)#102 + 216 x(103)#103
     + 69 x(104)#104 + 651 x(105)#105 + 759 x(106)#106 + 97 x(107)#107
     + 829 x(108)#108 + 390 x(109)#109 + 560 x(110)#110 + 246 x(111)#111
     + 57 x(112)#112 + 861 x(113)#113 + 338 x(114)#114 + 643 x(115)#115
     + 203 x(116)#116 + 410 x(117)#117 + 232 x(118)#118 + 57 x(119)#119
     + 52 x(120)#120 + 101 x(121)#121 + 850 x(122)#122 + 622 x(123)#123
     + 76 x(124)#124 + 264 x(125)#125 + 559 x(126)#126 + 96 x(127)#127
     + 259 x(128)#128 + 397 x(129)#129 + 734 x(130)#130 + 80 x(131)#131
     + 373 x(132)#132 + 707 x(133)#133 + 39 x(134)#134 + 886 x(135)#135
     + 496 x(136)#136 + 347 x(137)#137 + 412 x(138)#138 + 168 x(139)#139
     + 733 x(140)#140 + 325 x(141)#141 + 846 x(142)#142 + 530 x(143)#143
     + 16 x(144)#144 + 200 x(145)#145 + 402 x(146)#146 + 76 x(147)#147
     + 328 x(148)#148 + 806 x(149)#149 + 544 x(150)#150 + 670 x(151)#151
     + 228 x(152)#152 + 4 x(153)#153 + 935 x(154)#154 + 932 x(155)#155
     + 876 x(156)#156 + 498 x(157)#157 + 850 x(158)#158 + 194 x(159)#159
     + 331 x(160)#160 + 487 x(161)#161 + 569 x(162)#162 + 310 x(163)#163
     + 197 x(164)#164 + 322 x(165)#165 + 391 x(166)#166 + 912 x(167)#167
     + 461 x(168)#168 + 712 x(169)#169 + 383 x(170)#170 + 243 x(171)#171
     + 267 x(172)#172 + 600 x(173)#173 + 581 x(174)#174 + 72 x(175)#175
     + 279 x(176)#176 + 840 x(177)#177 + 5 x(178)#178 + 998 x(179)#179
     + 184 x(180)#180 + 710 x(181)#181 + 415 x(182)#182 + 932 x(183)#183
     + 931 x(184)#184 + 894 x(185)#185 + 477 x(186)#186 + 834 x(187)#187
     + 269 x(188)#188 + 398 x(189)#189 + 155 x(190)#190 + 763 x(191)#191
     + 831 x(192)#192 + 186 x(193)#193 + 387 x(194)#194 + 491 x(195)#195
     + 996 x(196)#196 + 865 x(197)#197 + 466 x(198)#198 + 696 x(199)#199
     + 268 x(200)#200 + 268 x(201)#201 + 383 x(202)#202 + 914 x(203)#203
     + 741 x(204)#204 + 122 x(205)#205 + 613 x(206)#206 + 385 x(207)#207
     + 766 x(208)#208 + 861 x(209)#209 + 277 x(210)#210 + 787 x(211)#211
     + 756 x(212)#212 + 25 x(213)#213 + 933 x(214)#214 + 419 x(215)#215
     + 736 x(216)#216 + 914 x(217)#217 + 902 x(218)#218 + 368 x(219)#219
     + 719 x(220)#220 + 67 x(221)#221 + 144 x(222)#222 + 643 x(223)#223
     + 103 x(224)#224 + 582 x(225)#225 + 717 x(226)#226 + 62 x(227)#227
     + 826 x(228)#228 + 519 x(229)#229 + 24 x(230)#230 + 612 x(231)#231
     + 69 x(232)#232 + 782 x(233)#233 + 85 x(234)#234 + 365 x(235)#235
     + 541 x(236)#236 + 264 x(237)#237 + 901 x(238)#238 + 566 x(239)#239
     + 550 x(240)#240 + 589 x(241)#241 + 144 x(242)#242 + 946 x(243)#243
     + 867 x(244)#244 + 520 x(245)#245 + 65 x(246)#246 + 379 x(247)#247
     + 444 x(248)#248 + 760 x(249)#249 <= 94091
 c4: 895 x(0)#0 + 862 x(1)#1 + 298 x(2)#2 + 81 x(3)#3 + 65 x(4)#4 + 114 x(5)#5
     + 252 x(6)#6 + 778 x(7)#7 + 583 x(8)#8 + 54 x(9)#9 + 280 x(10)#10
     + 636 x(11)#11 + 9 x(12)#12 + 317 x(13)#13 + 544 x(14)#14 + 879 x(15)#15
     + 656 x(16)#16 + 139 x(17)#17 + 658 x(18)#18 + 732 x(19)#19 + 54 x(20)#20
     + 381 x(21)#21 + 157 x(22)#22 + 138 x(23)#23 + 263 x(24)#24 + 802 x(25)#25
     + 877 x(26)#26 + 666 x(27)#27 + 428 x(28)#28 + 35 x(29)#29 + 309 x(30)#30
     + 681 x(31)#31 + 411 x(32)#32 + 540 x(33)#33 + 615 x(34)#34 + 881 x(35)#35
     + 120 x(36)#36 + 431 x(37)#37 + 765 x(38)#38 + 662 x(39)#39 + 41 x(40)#40
     + 629 x(41)#41 + 252 x(42)#42 + 41 x(43)#43 + 172 x(44)#44 + 908 x(45)#45
     + 526 x(46)#46 + 662 x(47)#47 + 834 x(48)#48 + 606 x(49)#49 + 84 x(50)#50
     + 238 x(51)#51 + 560 x(52)#52 + 807 x(53)#53 + 109 x(54)#54 + 708 x(55)#55
     + 553 x(56)#56 + 813 x(57)#57 + 986 x(58)#58 + 800 x(59)#59 + 517 x(60)#60
     + 357 x(61)#61 + 277 x(62)#62 + 405 x(63)#63 + 896 x(64)#64 + 218 x(65)#65
     + 348 x(66)#66 + 842 x(67)#67 + 851 x(68)#68 + 828 x(69)#69 + 354 x(70)#70
     + 675 x(71)#71 + 874 x(72)#72 + 769 x(73)#73 + 16 x(74)#74 + 421 x(75)#75
     + 986 x(76)#76 + 455 x(77)#77 + 534 x(78)#78 + 788 x(79)#79 + 545 x(80)#80
     + 261 x(81)#81 + 419 x(82)#82 + 357 x(83)#83 + 554 x(84)#84 + 332 x(85)#85
     + 541 x(86)#86 + 210 x(87)#87 + 199 x(88)#88 + 257 x(89)#89 + 2 x(90)#90
     + 729 x(91)#91 + 174 x(92)#92 + 56 x(93)#93 + 443 x(94)#94 + 283 x(95)#95
     + 63 x(96)#96 + 535 x(97)#97 + 19 x(98)#98 + 509 x(99)#99 + 450 x(100)#100
     + 280 x(101)#101 + 651 x(102)#102 + 40 x(103)#103 + 899 x(104)#104
     + 820 x(105)#105 + 611 x(106)#106 + 865 x(107)#107 + 499 x(108)#108
     + 7 x(109)#109 + 80 x(110)#110 + 232 x(111)#111 + 517 x(112)#112
     + 192 x(113)#113 + 872 x(114)#114 + 65 x(115)#115 + 285 x(116)#116
     + 420 x(117)#117 + 350 x(118)#118 + 413 x(119)#119 + 113 x(120)#120
     + 312 x(121)#121 + 501 x(122)#122 + 125 x(123)#123 + 957 x(124)#124
     + 515 x(125)#125 + 431 x(126)#126 + 147 x(127)#127 + 119 x(128)#128
     + 797 x(129)#129 + 219 x(130)#130 + 361 x(131)#131 + 991 x(132)#132
     + 738 x(133)#133 + 48 x(134)#134 + 766 x(135)#135 + 428 x(136)#136
     + 716 x(137)#137 + 149 x(138)#138 + 164 x(139)#139 + 406 x(140)#140
     + 588 x(141)#141 + 60 x(142)#142 + 451 x(143)#143 + 208 x(144)#144
     + 846 x(145)#145 + 881 x(146)#146 + 43 x(147)#147 + 113 x(148)#148
     + 511 x(149)#149 + 118 x(150)#150 + 868 x(151)#151 + 7 x(152)#152
     + 440 x(153)#153 + 132 x(154)#154 + 365 x(155)#155 + 698 x(156)#156
     + 400 x(157)#157 + 249 x(158)#158 + 614 x(159)#159 + 305 x(160)#160
     + 594 x(161)#161 + 77 x(162)#162 + 974 x(163)#163 + 192 x(164)#164
     + 596 x(165)#165 + 786 x(166)#166 + 180 x(167)#167 + 36 x(168)#168
     + 522 x(169)#169 + 350 x(170)#170 + 279 x(171)#171 + 52 x(172)#172
     + 734 x(173)#173 + 362 x(174)#174 + 524 x(175)#175 + 872 x(176)#176
     + 265 x(177)#177 + 800 x(178)#178 + 602 x(179)#179 + 350 x(180)#180
     + 485 x(181)#181 + 583 x(182)#182 + 607 x(183)#183 + 320 x(184)#184
     + 770 x(185)#185 + 150 x(186)#186 + 224 x(187)#187 + 719 x(188)#188
     + 581 x(189)#189 + 362 x(190)#190 + 387 x(191)#191 + 357 x(192)#192
     + 416 x(193)#193 + 559 x(194)#194 + 397 x(195)#195 + 350 x(196)#196
     + 524 x(197)#197 + 400 x(198)#198 + 91 x(199)#199 + 796 x(200)#200
     + 895 x(201)#201 + 239 x(202)#202 + 265 x(203)#203 + 893 x(204)#204
     + 653 x(205)#205 + 563 x(206)#206 + 475 x(207)#207 + 493 x(208)#208
     + 847 x(209)#209 + 748 x(210)#210 + 991 x(211)#211 + 115 x(212)#212
     + 502 x(213)#213 + 472 x(214)#214 + 751 x(215)#215 + 525 x(216)#216
     + 486 x(217)#217 + 347 x(218)#218 + 111 x(219)#219 + 146 x(220)#220
     + 908 x(221)#221 + 688 x(222)#222 + 419 x(223)#223 + 275 x(224)#224
     + 805 x(225)#225 + 475 x(226)#226 + 78 x(227)#227 + 480 x(228)#228
     + 635 x(229)#229 + 274 x(230)#230 + 626 x(231)#231 + 44 x(232)#232
     + 81 x(233)#233 + 142 x(234)#234 + 186 x(235)#235 + 32 x(236)#236
     + 65 x(237)#237 + 389 x(238)#238 + 953 x(239)#239 + 785 x(240)#240
     + 586 x(241)#241 + 149 x(242)#242 + 857 x(243)#243 + 713 x(244)#244
     + 162 x(245)#245 + 433 x(246)#246 + 739 x(247)#247 + 821 x(248)#248
     + 901 x(249)#249 <= 85625
 c5: 355 x(0)#0 + 905 x(1)#1 + 524 x(2)#2 + 435 x(3)#3 + 69 x(4)#4 + 981 x(5)#5
     + 18 x(6)#6 + 203 x(7)#7 + 935 x(8)#8 + 632 x(9)#9 + 639 x(10)#10
     + 18 x(11)#11 + 320 x(12)#12 + x(13)#13 + 380 x(14)#14 + 689 x(15)#15
     + 229 x(16)#16 + 971 x(17)#17 + 686 x(18)#18 + 897 x(19)#19 + 98 x(20)#20
     + 317 x(21)#21 + 794 x(22)#22 + 832 x(23)#23 + 572 x(24)#24 + 17 x(25)#25
     + 559 x(26)#26 + 41 x(27)#27 + 570 x(28)#28 + 956 x(29)#29 + 210 x(30)#30
     + 917 x(31)#31 + 879 x(32)#32 + 351 x(33)#33 + 276 x(34)#34 + 731 x(35)#35
     + 104 x(36)#36 + 826 x(37)#37 + 883 x(38)#38 + 640 x(39)#39 + 125 x(40)#40
     + 75 x(41)#41 + 603 x(42)#42 + 271 x(43)#43 + 602 x(44)#44 + 377 x(45)#45
     + 899 x(46)#46 + 151 x(47)#47 + 739 x(48)#48 + 180 x(49)#49 + 719 x(50)#50
     + 823 x(51)#51 + 562 x(52)#52 + 784 x(53)#53 + 761 x(54)#54 + 762 x(55)#55
     + 815 x(56)#56 + 454 x(57)#57 + 950 x(58)#58 + 459 x(59)#59 + 675 x(60)#60
     + 409 x(61)#61 + 882 x(62)#62 + 31 x(63)#63 + 157 x(64)#64 + 128 x(65)#65
     + 939 x(66)#66 + 572 x(67)#67 + 9 x(68)#68 + 329 x(69)#69 + 126 x(70)#70
     + 973 x(71)#71 + 533 x(72)#72 + 592 x(73)#73 + 956 x(74)#74 + 435 x(75)#75
     + 641 x(76)#76 + 769 x(77)#77 + 730 x(78)#78 + 795 x(79)#79 + 448 x(80)#80
     + 612 x(81)#81 + 875 x(82)#82 + 490 x(83)#83 + 875 x(84)#84 + 817 x(85)#85
     + 189 x(86)#86 + 216 x(87)#87 + 56 x(88)#88 + 320 x(89)#89 + 830 x(90)#90
     + 479 x(91)#91 + 997 x(92)#92 + 122 x(93)#93 + 365 x(94)#94 + 99 x(95)#95
     + 807 x(96)#96 + 853 x(97)#97 + 233 x(98)#98 + 942 x(99)#99
     + 993 x(100)#100 + 578 x(101)#101 + 498 x(102)#102 + 186 x(103)#103
     + 717 x(104)#104 + 302 x(105)#105 + 233 x(106)#106 + 526 x(107)#107
     + 411 x(108)#108 + 978 x(109)#109 + 960 x(110)#110 + 541 x(111)#111
     + 973 x(112)#112 + 163 x(113)#113 + 545 x(114)#114 + 753 x(115)#115
     + 358 x(116)#116 + 433 x(117)#117 + 383 x(118)#118 + 323 x(119)#119
     + 542 x(120)#120 + 936 x(121)#121 + 255 x(122)#122 + 839 x(123)#123
     + 471 x(124)#124 + 368 x(125)#125 + 381 x(126)#126 + 104 x(127)#127
     + 212 x(128)#128 + 5 x(129)#129 + 685 x(130)#130 + 105 x(131)#131
     + 950 x(132)#132 + 750 x(133)#133 + 320 x(134)#134 + 856 x(135)#135
     + 614 x(136)#136 + 957 x(137)#137 + 779 x(138)#138 + 72 x(139)#139
     + 42 x(140)#140 + 51 x(141)#141 + 246 x(142)#142 + 365 x(143)#143
     + 536 x(144)#144 + 202 x(145)#145 + 466 x(146)#146 + 214 x(147)#147
     + 716 x(148)#148 + 199 x(149)#149 + 375 x(150)#150 + 337 x(151)#151
     + 57 x(152)#152 + 485 x(153)#153 + 928 x(154)#154 + 785 x(155)#155
     + 721 x(156)#156 + 43 x(157)#157 + 216 x(158)#158 + 88 x(159)#159
     + 364 x(160)#160 + 768 x(161)#161 + 545 x(162)#162 + 229 x(163)#163
     + 698 x(164)#164 + 36 x(165)#165 + 336 x(166)#166 + 917 x(167)#167
     + 393 x(168)#168 + 246 x(169)#169 + 889 x(170)#170 + 41 x(171)#171
     + 653 x(172)#172 + 125 x(173)#173 + 972 x(174)#174 + 906 x(175)#175
     + 899 x(176)#176 + 192 x(177)#177 + 557 x(178)#178 + 911 x(179)#179
     + 412 x(180)#180 + 700 x(181)#181 + 693 x(182)#182 + 875 x(183)#183
     + 994 x(184)#184 + 392 x(185)#185 + 434 x(186)#186 + 311 x(187)#187
     + 827 x(188)#188 + 986 x(189)#189 + 350 x(190)#190 + 218 x(191)#191
     + 792 x(192)#192 + 727 x(193)#193 + 98 x(194)#194 + 530 x(195)#195
     + 44 x(196)#196 + 181 x(197)#197 + 625 x(198)#198 + 898 x(199)#199
     + 365 x(200)#200 + 257 x(201)#201 + 205 x(202)#202 + 145 x(203)#203
     + 53 x(204)#204 + 351 x(205)#205 + 18 x(206)#206 + 862 x(207)#207
     + 357 x(208)#208 + 837 x(209)#209 + 315 x(210)#210 + 934 x(211)#211
     + 830 x(212)#212 + 303 x(213)#213 + 128 x(214)#214 + 377 x(215)#215
     + 511 x(216)#216 + 176 x(217)#217 + 237 x(218)#218 + 79 x(219)#219
     + 325 x(220)#220 + 893 x(221)#221 + 65 x(222)#222 + 254 x(223)#223
     + 630 x(224)#224 + 633 x(225)#225 + 355 x(226)#226 + 128 x(227)#227
     + 948 x(228)#228 + 712 x(229)#229 + 228 x(230)#230 + 919 x(231)#231
     + 378 x(232)#232 + 13 x(233)#233 + 245 x(234)#234 + 304 x(235)#235
     + 736 x(236)#236 + 666 x(237)#237 + 527 x(238)#238 + 56 x(239)#239
     + 350 x(240)#240 + 706 x(241)#241 + 420 x(242)#242 + 41 x(243)#243
     + 506 x(244)#244 + 696 x(245)#245 + 273 x(246)#246 + 178 x(247)#247
     + 914 x(248)#248 + 598 x(249)#249 <= 92854
Bounds
 0 <= x(0)#0 <= 1
 0 <= x(1)#1 <= 1
 0 <= x(2)#2 <= 1
 0 <= x(3)#3 <= 1
 0 <= x(4)#4 <= 1
 0 <= x(5)#5 <= 1
 0 <= x(6)#6 <= 1
 0 <= x(7)#7 <= 1
 0 <= x(8)#8 <= 1
 0 <= x(9)#9 <= 1
 0 <= x(10)#10 <= 1
 0 <= x(11)#11 <= 1
 0 <= x(12)#12 <= 1
 0 <= x(13)#13 <= 1
 0 <= x(14)#14 <= 1
 0 <= x(15)#15 <= 1
 0 <= x(16)#16 <= 1
 0 <= x(17)#17 <= 1
 0 <= x(18)#18 <= 1
 0 <= x(19)#19 <= 1
 0 <= x(20)#20 <= 1
 0 <= x(21)#21 <= 1
 0 <= x(22)#22 <= 1
 0 <= x(23)#23 <= 1
 0 <= x(24)#24 <= 1
 0 <= x(25)#25 <= 1
 0 <= x(26)#26 <= 1
 0 <= x(27)#27 <= 1
 0 <= x(28)#28 <= 1
 0 <= x(29)#29 <= 1
 0 <= x(30)#30 <= 1
 0 <= x(31)#31 <= 1
 0 <= x(32)#32 <= 1
 0 <= x(33)#33 <= 1
 0 <= x(34)#34 <= 1
 0 <= x(35)#35 <= 1
 0 <= x(36)#36 <= 1
 0 <= x(37)#37 <= 1
 0 <= x(38)#38 <= 1
 0 <= x(39)#39 <= 1
 0 <= x(40)#40 <= 1
 0 <= x(41)#41 <= 1
 0 <= x(42)#42 <= 1
 0 <= x(43)#43 <= 1
 0 <= x(44)#44 <= 1
 0 <= x(45)#45 <= 1
 0 <= x(46)#46 <= 1
 0 <= x(47)#47 <= 1
 0 <= x(48)#48 <= 1
 0 <= x(49)#49 <= 1
 0 <= x(50)#50 <= 1
 0 <= x(51)#51 <= 1
 0 <= x(52)#52 <= 1
 0 <= x(53)#53 <= 1
 0 <= x(54)#54 <= 1
 0 <= x(55)#55 <= 1
 0 <= x(56)#56 <= 1
 0 <= x(57)#57 <= 1
 0 <= x(58)#58 <= 1
 0 <= x(59)#59 <= 1
 0 <= x(60)#60 <= 1
 0 <= x(61)#61 <= 1
 0 <= x(62)#62 <= 1
 0 <= x(63)#63 <= 1
 0 <= x(64)#64 <= 1
 0 <= x(65)#65 <= 1
 0 <= x(66)#66 <= 1
 0 <= x(67)#67 <= 1
 0 <= x(68)#68 <= 1
 0 <= x(69)#69 <= 1
 0 <= x(70)#70 <= 1
 0 <= x(71)#71 <= 1
 0 <= x(72)#72 <= 1
 0 <= x(73)#73 <= 1
 0 <= x(74)#74 <= 1
 0 <= x(75)#75 <= 1
 0 <= x(76)#76 <= 1
 0 <= x(77)#77 <= 1
 0 <= x(78)#78 <= 1
 0 <= x(79)#79 <= 1
 0 <= x(80)#80 <= 1
 0 <= x(81)#81 <= 1
 0 <= x(82)#82 <= 1
 0 <= x(83)#83 <= 1
 0 <= x(84)#84 <= 1
 0 <= x(85)#85 <= 1
 0 <= x(86)#86 <= 1
 0 <= x(87)#87 <= 1
 0 <= x(88)#88 <= 1
 0 <= x(89)#89 <= 1
 0 <= x(90)#90 <= 1
 0 <= x(91)#91 <= 1
 0 <= x(92)#92 <= 1
 0 <= x(93)#93 <= 1
 0 <= x(94)#94 <= 1
 0 <= x(95)#95 <= 1
 0 <= x(96)#96 <= 1
 0 <= x(97)#97 <= 1
 0 <= x(98)#98 <= 1
 0 <= x(99)#99 <= 1
 0 <= x(100)#100 <= 1
 0 <= x(101)#101 <= 1
 0 <= x(102)#102 <= 1
 0 <= x(103)#103 <= 1
 0 <= x(104)#104 <= 1
 0 <= x(105)#105 <= 1
 0 <= x(106)#106 <= 1
 0 <= x(107)#107 <= 1
 0 <= x(108)#108 <= 1
 0 <= x(109)#109 <= 1
 0 <= x(110)#110 <= 1
 0 <= x(111)#111 <= 1
 0 <= x(112)#112 <= 1
 0 <= x(113)#113 <= 1
 0 <= x(114)#114 <= 1
 0 <= x(115)#115 <= 1
 0 <= x(116)#116 <= 1
 0 <= x(117)#117 <= 1
 0 <= x(118)#118 <= 1
 0 <= x(119)#119 <= 1
 0 <= x(120)#120 <= 1
 0 <= x(121)#121 <= 1
 0 <= x(122)#122 <= 1
 0 <= x(123)#123 <= 1
 0 <= x(124)#124 <= 1
 0 <= x(125)#125 <= 1
 0 <= x(126)#126 <= 1
 0 <= x(127)#127 <= 1
 0 <= x(128)#128 <= 1
 0 <= x(129)#129 <= 1
 0 <= x(130)#130 <= 1
 0 <= x(131)#131 <= 1
 0 <= x(132)#132 <= 1
 0 <= x(133)#133 <= 1
 0 <= x(134)#134 <= 1
 0 <= x(135)#135 <= 1
 0 <= x(136)#136 <= 1
 0 <= x(137)#137 <= 1
 0 <= x(138)#138 <= 1
 0 <= x(139)#139 <= 1
 0 <= x(140)#140 <= 1
 0 <= x(141)#141 <= 1
 0 <= x(142)#142 <= 1
 0 <= x(143)#143 <= 1
 0 <= x(144)#144 <= 1
 0 <= x(145)#145 <= 1
 0 <= x(146)#146 <= 1
 0 <= x(147)#147 <= 1
 0 <= x(148)#148 <= 1
 0 <= x(149)#149 <= 1
 0 <= x(150)#150 <= 1
 0 <= x(151)#151 <= 1
 0 <= x(152)#152 <= 1
 0 <= x(153)#153 <= 1
 0 <= x(154)#154 <= 1
 0 <= x(155)#155 <= 1
 0 <= x(156)#156 <= 1
 0 <= x(157)#157 <= 1
 0 <= x(158)#158 <= 1
 0 <= x(159)#159 <= 1
 0 <= x(160)#160 <= 1
 0 <= x(161)#161 <= 1
 0 <= x(162)#162 <= 1
 0 <= x(163)#163 <= 1
 0 <= x(164)#164 <= 1
 0 <= x(165)#165 <= 1
 0 <= x(166)#166 <= 1
 0 <= x(167)#167 <= 1
 0 <= x(168)#168 <= 1
 0 <= x(169)#169 <= 1
 0 <= x(170)#170 <= 1
 0 <= x(171)#171 <= 1
 0 <= x(172)#172 <= 1
 0 <= x(173)#173 <= 1
 0 <= x(174)#174 <= 1
 0 <= x(175)#175 <= 1
 0 <= x(176)#176 <= 1
 0 <= x(177)#177 <= 1
 0 <= x(178)#178 <= 1
 0 <= x(179)#179 <= 1
 0 <= x(180)#180 <= 1
 0 <= x(181)#181 <= 1
 0 <= x(182)#182 <= 1
 0 <= x(183)#183 <= 1
 0 <= x(184)#184 <= 1
 0 <= x(185)#185 <= 1
 0 <= x(186)#186 <= 1
 0 <= x(187)#187 <= 1
 0 <= x(188)#188 <= 1
 0 <= x(189)#189 <= 1
 0 <= x(190)#190 <= 1
 0 <= x(191)#191 <= 1
 0 <= x(192)#192 <= 1
 0 <= x(193)#193 <= 1
 0 <= x(194)#194 <= 1
 0 <= x(195)#195 <= 1
 0 <= x(196)#196 <= 1
 0 <= x(197)#197 <= 1
 0 <= x(198)#198 <= 1
 0 <= x(199)#199 <= 1
 0 <= x(200)#200 <= 1
 0 <= x(201)#201 <= 1
 0 <= x(202)#202 <= 1
 0 <= x(203)#203 <= 1
 0 <= x(204)#204 <= 1
 0 <= x(205)#205 <= 1
 0 <= x(206)#206 <= 1
 0 <= x(207)#207 <= 1
 0 <= x(208)#208 <= 1
 0 <= x(209)#209 <= 1
 0 <= x(210)#210 <= 1
 0 <= x(211)#211 <= 1
 0 <= x(212)#212 <= 1
 0 <= x(213)#213 <= 1
 0 <= x(214)#214 <= 1
 0 <= x(215)#215 <= 1
 0 <= x(216)#216 <= 1
 0 <= x(217)#217 <= 1
 0 <= x(218)#218 <= 1
 0 <= x(219)#219 <= 1
 0 <= x(220)#220 <= 1
 0 <= x(221)#221 <= 1
 0 <= x(222)#222 <= 1
 0 <= x(223)#223 <= 1
 0 <= x(224)#224 <= 1
 0 <= x(225)#225 <= 1
 0 <= x(226)#226 <= 1
 0 <= x(227)#227 <= 1
 0 <= x(228)#228 <= 1
 0 <= x(229)#229 <= 1
 0 <= x(230)#230 <= 1
 0 <= x(231)#231 <= 1
 0 <= x(232)#232 <= 1
 0 <= x(233)#233 <= 1
 0 <= x(234)#234 <= 1
 0 <= x(235)#235 <= 1
 0 <= x(236)#236 <= 1
 0 <= x(237)#237 <= 1
 0 <= x(238)#238 <= 1
 0 <= x(239)#239 <= 1
 0 <= x(240)#240 <= 1
 0 <= x(241)#241 <= 1
 0 <= x(242)#242 <= 1
 0 <= x(243)#243 <= 1
 0 <= x(244)#244 <= 1
 0 <= x(245)#245 <= 1
 0 <= x(246)#246 <= 1
 0 <= x(247)#247 <= 1
 0 <= x(248)#248 <= 1
 0 <= x(249)#249 <= 1
Generals
 x(0)#0  x(1)#1  x(2)#2  x(3)#3  x(4)#4  x(5)#5  x(6)#6  x(7)#7  x(8)#8 
 x(9)#9  x(10)#10  x(11)#11  x(12)#12  x(13)#13  x(14)#14  x(15)#15  x(16)#16 
 x(17)#17  x(18)#18  x(19)#19  x(20)#20  x(21)#21  x(22)#22  x(23)#23 
 x(24)#24  x(25)#25  x(26)#26  x(27)#27  x(28)#28  x(29)#29  x(30)#30 
 x(31)#31  x(32)#32  x(33)#33  x(34)#34  x(35)#35  x(36)#36  x(37)#37 
 x(38)#38  x(39)#39  x(40)#40  x(41)#41  x(42)#42  x(43)#43  x(44)#44 
 x(45)#45  x(46)#46  x(47)#47  x(48)#48  x(49)#49  x(50)#50  x(51)#51 
 x(52)#52  x(53)#53  x(54)#54  x(55)#55  x(56)#56  x(57)#57  x(58)#58 
 x(59)#59  x(60)#60  x(61)#61  x(62)#62  x(63)#63  x(64)#64  x(65)#65 
 x(66)#66  x(67)#67  x(68)#68  x(69)#69  x(70)#70  x(71)#71  x(72)#72 
 x(73)#73  x(74)#74  x(75)#75  x(76)#76  x(77)#77  x(78)#78  x(79)#79 
 x(80)#80  x(81)#81  x(82)#82  x(83)#83  x(84)#84  x(85)#85  x(86)#86 
 x(87)#87  x(88)#88  x(89)#89  x(90)#90  x(91)#91  x(92)#92  x(93)#93 
 x(94)#94  x(95)#95  x(96)#96  x(97)#97  x(98)#98  x(99)#99  x(100)#100 
 x(101)#101  x(102)#102  x(103)#103  x(104)#104  x(105)#105  x(106)#106 
 x(107)#107  x(108)#108  x(109)#109  x(110)#110  x(111)#111  x(112)#112 
 x(113)#113  x(114)#114  x(115)#115  x(116)#116  x(117)#117  x(118)#118 
 x(119)#119  x(120)#120  x(121)#121  x(122)#122  x(123)#123  x(124)#124 
 x(125)#125  x(126)#126  x(127)#127  x(128)#128  x(129)#129  x(130)#130 
 x(131)#131  x(132)#132  x(133)#133  x(134)#134  x(135)#135  x(136)#136 
 x(137)#137  x(138)#138  x(139)#139  x(140)#140  x(141)#141  x(142)#142 
 x(143)#143  x(144)#144  x(145)#145  x(146)#146  x(147)#147  x(148)#148 
 x(149)#149  x(150)#150  x(151)#151  x(152)#152  x(153)#153  x(154)#154 
 x(155)#155  x(156)#156  x(157)#157  x(158)#158  x(159)#159  x(160)#160 
 x(161)#161  x(162)#162  x(163)#163  x(164)#164  x(165)#165  x(166)#166 
 x(167)#167  x(168)#168  x(169)#169  x(170)#170  x(171)#171  x(172)#172 
 x(173)#173  x(174)#174  x(175)#175  x(176)#176  x(177)#177  x(178)#178 
 x(179)#179  x(180)#180  x(181)#181  x(182)#182  x(183)#183  x(184)#184 
 x(185)#185  x(186)#186  x(187)#187  x(188)#188  x(189)#189  x(190)#190 
 x(191)#191  x(192)#192  x(193)#193  x(194)#194  x(195)#195  x(196)#196 
 x(197)#197  x(198)#198  x(199)#199  x(200)#200  x(201)#201  x(202)#202 
 x(203)#203  x(204)#204  x(205)#205  x(206)#206  x(207)#207  x(208)#208 
 x(209)#209  x(210)#210  x(211)#211  x(212)#212  x(213)#213  x(214)#214 
 x(215)#215  x(216)#216  x(217)#217  x(218)#218  x(219)#219  x(220)#220 
 x(221)#221  x(222)#222  x(223)#223  x(224)#224  x(225)#225  x(226)#226 
 x(227)#227  x(228)#228  x(229)#229  x(230)#230  x(231)#231  x(232)#232 
 x(233)#233  x(234)#234  x(235)#235  x(236)#236  x(237)#237  x(238)#238 
 x(239)#239  x(240)#240  x(241)#241  x(242)#242  x(243)#243  x(244)#244 
 x(245)#245  x(246)#246  x(247)#247  x(248)#248  x(249)#249 
End
